============================[ Problem Statistics ]=============================|                                                                             ||  Number of variables:          4242                                         ||  Number of clauses:           10170                                         ||  Parse time:                   0.56 s                                       ||                                                                             |============================[ Search Statistics ]==============================| Conflicts |          ORIGINAL         |          LEARNT          | Progress ||           |    Vars  Clauses Literals |    Limit  Clauses Lit/Cl |          |===============================================================================|       100 |    1591     6375   890026 |     2337      100     53 | 62.501 % ||       250 |    1591     6375   890026 |     2571      250     75 | 62.495 % |===============================================================================restarts              : 3conflicts             : 309            (367 /sec)decisions             : 573            (0.00 % random) (680 /sec)propagations          : 11870          (14081 /sec)conflict literals     : 24523          (94.72 % deleted)CPU time              : 0.843 sSATISFIABLE